% seed = 2228664

mint = 41;
% maxt = 105;

nActs = 22;
dur = [0,3,3,3,5,9,6,7,3,3,6,3,9,9,7,1,8,9,2,1,8,0];

nSkills = 4;
sreq = [| 0,0,0,0,
	| 3,2,1,3,
	| 3,2,3,1,
	| 1,2,1,3,
	| 2,3,1,3,
	| 1,1,2,1,
	| 3,3,1,2,
	| 1,1,2,3,
	| 3,1,1,3,
	| 2,2,3,1,
	| 3,1,3,2,
	| 3,3,2,1,
	| 3,1,2,1,
	| 3,2,3,2,
	| 2,3,1,3,
	| 3,1,1,3,
	| 2,2,2,2,
	| 3,1,1,1,
	| 3,2,1,1,
	| 1,2,3,1,
	| 2,1,3,3,
	| 0,0,0,0, |];

nResources = 20;
mastery = [| true,false,false,false,
	| true,true,false,true,
	| true,false,true,true,
	| true,true,false,false,
	| false,false,false,true,
	| true,true,false,false,
	| true,true,false,true,
	| true,false,false,true,
	| true,false,true,false,
	| true,true,true,false,
	| true,true,true,false,
	| false,true,true,true,
	| false,false,true,true,
	| true,false,true,true,
	| false,false,true,false,
	| false,true,true,true,
	| true,true,false,true,
	| true,false,true,false,
	| false,false,true,false,
	| false,false,false,true, |];

nPrecs = 43;
pred = [1,1,1,2,2,2,3,3,4,4,5,5,5,6,6,7,7,7,8,9,9,10,10,10,11,12,13,13,13,14,14,14,15,15,15,16,17,17,17,18,19,20,21];
succ = [2,3,4,10,8,18,5,7,17,8,13,6,14,9,10,17,11,12,9,11,12,11,12,16,15,19,18,15,16,17,18,15,19,20,21,21,19,20,21,20,22,22,22];

nUnrels = 79;
unpred = [2,2,2,2,2,2,2,2,3,3,4,4,4,4,4,4,4,4,5,5,6,6,6,6,6,6,7,7,7,7,7,7,7,8,8,8,8,8,8,9,9,9,9,9,9,10,10,10,10,11,11,11,11,11,11,12,12,12,12,12,12,12,12,13,13,14,15,15,15,16,16,16,16,17,18,18,19,19,20];
unsucc = [3,4,5,6,7,13,14,17,4,8,5,6,7,10,13,14,16,18,7,8,7,8,13,14,17,18,8,9,10,13,14,16,18,10,13,14,16,17,18,10,13,14,16,17,18,13,14,17,18,12,13,14,16,17,18,13,14,15,16,17,18,20,21,14,17,16,16,17,18,17,18,19,20,18,19,21,20,21,21];

USEFUL_RES = [{},
	{1,2,3,4,5,6,7,8,9,10,11,12,13,14,15,16,17,18,19,20},
	{1,2,3,4,5,6,7,8,9,10,11,12,13,14,15,16,17,18,19,20},
	{1,2,3,4,5,6,7,8,9,10,11,12,13,14,15,16,17,18,19,20},
	{1,2,3,4,5,6,7,8,9,10,11,12,13,14,15,16,17,18,19,20},
	{1,2,3,4,5,6,7,8,9,10,11,12,13,14,15,16,17,18,19,20},
	{1,2,3,4,5,6,7,8,9,10,11,12,13,14,15,16,17,18,19,20},
	{1,2,3,4,5,6,7,8,9,10,11,12,13,14,15,16,17,18,19,20},
	{1,2,3,4,5,6,7,8,9,10,11,12,13,14,15,16,17,18,19,20},
	{1,2,3,4,5,6,7,8,9,10,11,12,13,14,15,16,17,18,19,20},
	{1,2,3,4,5,6,7,8,9,10,11,12,13,14,15,16,17,18,19,20},
	{1,2,3,4,5,6,7,8,9,10,11,12,13,14,15,16,17,18,19,20},
	{1,2,3,4,5,6,7,8,9,10,11,12,13,14,15,16,17,18,19,20},
	{1,2,3,4,5,6,7,8,9,10,11,12,13,14,15,16,17,18,19,20},
	{1,2,3,4,5,6,7,8,9,10,11,12,13,14,15,16,17,18,19,20},
	{1,2,3,4,5,6,7,8,9,10,11,12,13,14,15,16,17,18,19,20},
	{1,2,3,4,5,6,7,8,9,10,11,12,13,14,15,16,17,18,19,20},
	{1,2,3,4,5,6,7,8,9,10,11,12,13,14,15,16,17,18,19,20},
	{1,2,3,4,5,6,7,8,9,10,11,12,13,14,15,16,17,18,19,20},
	{1,2,3,4,5,6,7,8,9,10,11,12,13,14,15,16,17,18,19,20},
	{1,2,3,4,5,6,7,8,9,10,11,12,13,14,15,16,17,18,19,20},
	{}];

POTENTIAL_ACT = [{2,3,4,5,6,7,8,9,10,11,12,13,14,15,16,17,18,19,20,21},
	{2,3,4,5,6,7,8,9,10,11,12,13,14,15,16,17,18,19,20,21},
	{2,3,4,5,6,7,8,9,10,11,12,13,14,15,16,17,18,19,20,21},
	{2,3,4,5,6,7,8,9,10,11,12,13,14,15,16,17,18,19,20,21},
	{2,3,4,5,6,7,8,9,10,11,12,13,14,15,16,17,18,19,20,21},
	{2,3,4,5,6,7,8,9,10,11,12,13,14,15,16,17,18,19,20,21},
	{2,3,4,5,6,7,8,9,10,11,12,13,14,15,16,17,18,19,20,21},
	{2,3,4,5,6,7,8,9,10,11,12,13,14,15,16,17,18,19,20,21},
	{2,3,4,5,6,7,8,9,10,11,12,13,14,15,16,17,18,19,20,21},
	{2,3,4,5,6,7,8,9,10,11,12,13,14,15,16,17,18,19,20,21},
	{2,3,4,5,6,7,8,9,10,11,12,13,14,15,16,17,18,19,20,21},
	{2,3,4,5,6,7,8,9,10,11,12,13,14,15,16,17,18,19,20,21},
	{2,3,4,5,6,7,8,9,10,11,12,13,14,15,16,17,18,19,20,21},
	{2,3,4,5,6,7,8,9,10,11,12,13,14,15,16,17,18,19,20,21},
	{2,3,4,5,6,7,8,9,10,11,12,13,14,15,16,17,18,19,20,21},
	{2,3,4,5,6,7,8,9,10,11,12,13,14,15,16,17,18,19,20,21},
	{2,3,4,5,6,7,8,9,10,11,12,13,14,15,16,17,18,19,20,21},
	{2,3,4,5,6,7,8,9,10,11,12,13,14,15,16,17,18,19,20,21},
	{2,3,4,5,6,7,8,9,10,11,12,13,14,15,16,17,18,19,20,21},
	{2,3,4,5,6,7,8,9,10,11,12,13,14,15,16,17,18,19,20,21}];
